# Solution for model qis_1000_800_448
# Objective value = 2.8577242703859974e+02
x[0] 1
x[1] -1.1021541132225447e-07
x[2] 1
x[3] 0
x[4] 0
x[5] 1
x[6] 1.0000000160048335e+00
x[7] 1
x[8] 0
x[9] 0
x[10] 0
x[11] 0
x[12] 9.9999997057231627e-01
x[13] 9.9999933333288715e-01
x[14] 1
x[15] 0
x[16] 1
x[17] 0
x[18] 1
x[19] 1
x[20] 1
x[21] 1
x[22] 9.9999996372418576e-01
x[23] 1
x[24] 0
x[25] 0
x[26] 0
x[27] 0
x[28] 1
x[29] 0
x[30] 0
x[31] 0
x[32] -5.0669978508403776e-08
x[33] 0
x[34] 1
x[35] 1.0000000483630547e+00
x[36] 1
x[37] -1.8804390876768779e-08
x[38] 0
x[39] 1
x[40] 1
x[41] 0
x[42] 1
x[43] 0
x[44] 0
x[45] 0
x[46] -1.1790298241311471e-07
x[47] 1
x[48] 1
x[49] 0
x[50] 0
x[51] 0
x[52] 1
x[53] 1
x[54] 1
x[55] 1
x[56] 0
x[57] 1
x[58] 1
x[59] 0
x[60] 1.0000000244554574e+00
x[61] 0
x[62] 1
x[63] 1.0000000207224684e+00
x[64] 0
x[65] 0
x[66] 0
x[67] 1
x[68] 0
x[69] 0
x[70] 0
x[71] 0
x[72] 1
x[73] 1.3620800112314910e-08
x[74] 1
x[75] 1
x[76] 1.0000000242578639e+00
x[77] 1
x[78] 1
x[79] 0
x[80] 0
x[81] 1
x[82] 0
x[83] 1
x[84] 1
x[85] 1
x[86] 0
x[87] 1
x[88] 0
x[89] 0
x[90] 1.0000000119037231e+00
x[91] 1
x[92] 0
x[93] 1.0000000024798867e+00
x[94] 0
x[95] 1
x[96] 1
x[97] 0
x[98] 1
x[99] 0
x[100] 0
x[101] 1
x[102] 7.9664274985422751e-09
x[103] 1.0000001022639586e+00
x[104] 0
x[105] 1.0985647980101975e-07
x[106] 1.0000000481746862e+00
x[107] 0
x[108] 1
x[109] 1
x[110] 1
x[111] 1
x[112] 0
x[113] 0
x[114] 0.999999990203718
x[115] 1
x[116] 1
x[117] 1
x[118] 0
x[119] 0
x[120] 1
x[121] -6.6666755804689615e-07
x[122] 9.9999998882300667e-01
x[123] 1
x[124] 1
x[125] -8.2941604654231422e-08
x[126] 0
x[127] -6.6666755804689615e-07
x[128] 1
x[129] 1
x[130] 7.99281983269484e-09
x[131] 1
x[132] 0
x[133] 1
x[134] 1
x[135] 1
x[136] 0
x[137] 1
x[138] 0
x[139] 0
x[140] 1.0000000239541504e+00
x[141] 1
x[142] 1
x[143] 0
x[144] 1
x[145] -2.4502292911360230e-08
x[146] -8.4507250754459867e-08
x[147] 0
x[148] 1
x[149] 1
x[150] -2.7368038946207207e-09
x[151] 0
x[152] 0
x[153] 0
x[154] 0
x[155] 0
x[156] 1
x[157] 1
x[158] 0
x[159] 0
x[160] 1
x[161] 1
x[162] 1
x[163] 0
x[164] 0
x[165] 0
x[166] 1
x[167] 0
x[168] -2.1168959527994771e-08
x[169] 0
x[170] 0
x[171] 0
x[172] 1
x[173] 1
x[174] 1
x[175] 0
x[176] 1
x[177] 0
x[178] 1
x[179] 1
x[180] 0
x[181] 0
x[182] 0
x[183] -8.7840583917753179e-08
x[184] 1
x[185] 1
x[186] 1
x[187] 9.9999999652237626e-01
x[188] 0
x[189] 0
x[190] 1
x[191] 1
x[192] 1
x[193] 0
x[194] 0
x[195] 0
x[196] 0
x[197] 0
x[198] 0
x[199] 1
x[200] 1
x[201] 1
x[202] 1
x[203] 0
x[204] 1
x[205] 0
x[206] 0
x[207] 1
x[208] 1
x[209] 1
x[210] 0
x[211] 1
x[212] 0
x[213] 1
x[214] 1
x[215] 0
x[216] 1
x[217] 1
x[218] 1
x[219] 0
x[220] 7.8786513591317326e-09
x[221] 0
x[222] 0
x[223] -8.7840583695708574e-08
x[224] 1
x[225] 1.0000000053294347e+00
x[226] 1
x[227] 1
x[228] 1
x[229] 0
x[230] 0
x[231] 1
x[232] 1
x[233] 1
x[234] -8.7840584188718383e-08
x[235] 0
x[236] 0
x[237] 0
x[238] 0
x[239] 1
x[240] 9.9999866666577431e-01
x[241] 0
x[242] 0
x[243] 0
x[244] 0
x[245] 1.0000000243810458e+00
x[246] 1
x[247] 1
x[248] 0
x[249] 6.6661871009785274e-07
x[250] 0
x[251] 0
x[252] 0
x[253] 1.4001776689038441e-08
x[254] 0
x[255] 0
x[256] 0
x[257] 1
x[258] 0
x[259] 0
x[260] -8.62292773188854e-09
x[261] 0
x[262] 0
x[263] 0
x[264] 1.0000000554313662e+00
x[265] 0
x[266] 1
x[267] 1.4455476455870585e-08
x[268] 0
x[269] 1
x[270] 9.9999911444325618e-01
x[271] 1
x[272] 6.6212355360761758e-07
x[273] 0
x[274] 0
x[275] 0
x[276] 0
x[277] 0
x[278] 0
x[279] 0
x[280] 1.0960773516103848e-07
x[281] 0
x[282] 0
x[283] 0
x[284] 1
x[285] 0
x[286] 0
x[287] 1
x[288] 1
x[289] 1
x[290] 0
x[291] 0
x[292] 0
x[293] 1
x[294] 0
x[295] 1
x[296] 1
x[297] 1
x[298] 1
x[299] -1.0521541124200942e-07
x[300] -6.9562637573696549e-09
x[301] 0
x[302] 0
x[303] 1.0000000877902673e+00
x[304] 1
x[305] 1
x[306] 0
x[307] 1
x[308] 0
x[309] 0
x[310] 1
x[311] 0
x[312] -6.6607058363079526e-07
x[313] 0
x[314] 0
x[315] 1
x[316] 0
x[317] 1.0000006692794148e+00
x[318] -2.4502292809647246e-08
x[319] 0
x[320] 1
x[321] 0
x[322] 1
x[323] -8.4507250855385047e-08
x[324] 1
x[325] 1
x[326] 1
x[327] 1
x[328] 0
x[329] 1.0000000555772410e+00
x[330] 0
x[331] 0
x[332] 1.0000000118461925e+00
x[333] -5.5669978508403774e-08
x[334] 0
x[335] 0
x[336] 1
x[337] 0
x[338] 0
x[339] 0
x[340] 0
x[341] 1
x[342] 0
x[343] 1
x[344] -8.7840583917753179e-08
x[345] 1
x[346] 1
x[347] 1
x[348] 1
x[349] 0
x[350] 1
x[351] 0
x[352] 0
x[353] 1
x[354] 1
x[355] 0
x[356] 9.9999999462580524e-01
x[357] 9.9999998548967406e-01
x[358] 0
x[359] 0
x[360] 0
x[361] 1
x[362] 1
x[363] 0
x[364] 1
x[365] 0
x[366] 0
x[367] 1
x[368] 1
x[369] 1
x[370] 0
x[371] 1
x[372] 1
x[373] 1
x[374] 7.92525675157684e-09
x[375] 0
x[376] 1
x[377] 1
x[378] 1
x[379] 0
x[380] -9.9232863035439771e-08
x[381] 1
x[382] 0
x[383] 0
x[384] 1
x[385] 0
x[386] 0
x[387] 1.0000000877878814e+00
x[388] 0
x[389] 1
x[390] 1
x[391] 1
x[392] 1
x[393] 0
x[394] 1
x[395] 1
x[396] 0
x[397] 0
x[398] 0
x[399] 0
x[400] 1
x[401] -8.7840584250820086e-08
x[402] 0
x[403] 1
x[404] 1
x[405] 0
x[406] -1.1956261206380585e-08
x[407] 1
x[408] 1
x[409] 0
x[410] 1.0000000877898072e+00
x[411] 1
x[412] 0
x[413] 9.9999998548967306e-01
x[414] 0
x[415] 0
x[416] 1.0000000877832982e+00
x[417] 0
x[418] 1
x[419] 0
x[420] -1.2720334348603875e-08
x[421] 1
x[422] 0
x[423] 0
x[424] 0
x[425] 9.9999998882300689e-01
x[426] 1
x[427] 0
x[428] 1
x[429] 1
x[430] 0
x[431] -2.7368038946207207e-09
x[432] 0
x[433] 1
x[434] 0
x[435] 1
x[436] 1
x[437] 0
x[438] 1
x[439] 1
x[440] 1
x[441] 1
x[442] 1
x[443] 1
x[444] 1
x[445] 1
x[446] 0
x[447] 1.0000000160038935e+00
x[448] -1.6053667681966239e-08
x[449] 0
x[450] 1
x[451] 0
x[452] 1
x[453] 1.0000000118259040e+00
x[454] 0
x[455] 1
x[456] 0
x[457] 0
x[458] 9.9999998882300756e-01
x[459] 1
x[460] 0
x[461] 0
x[462] 1
x[463] 1
x[464] 1
x[465] 1
x[466] 0
x[467] 0
x[468] 9.9999998548967339e-01
x[469] 1
x[470] 0
x[471] 0
x[472] 0
x[473] 1
x[474] 1
x[475] 1
x[476] 1
x[477] 1
x[478] 0
x[479] 0
x[480] 0.999999897649089
x[481] 1
x[482] 1
x[483] 0
x[484] 0
x[485] 0
x[486] 1
x[487] 1
x[488] 0
x[489] 0
x[490] 1
x[491] 0
x[492] 1
x[493] 1
x[494] 0
x[495] 1
x[496] 1
x[497] 1
x[498] 1
x[499] 1
x[500] 1
x[501] 0
x[502] 1
x[503] 0
x[504] 1
x[505] 0
x[506] 1
x[507] 0
x[508] 1
x[509] 1
x[510] 0
x[511] 0
x[512] 0
x[513] 1
x[514] 1
x[515] 6.6656788931864372e-07
x[516] 0
x[517] -8.4925706297314776e-09
x[518] 0
x[519] 1
x[520] 0
x[521] 0
x[522] 9.9999999999999956e-01
x[523] 1.0000001022915077e+00
x[524] 1.0000000877777897e+00
x[525] 0
x[526] 0
x[527] 0
x[528] 1
x[529] 0
x[530] 0
x[531] 0
x[532] 1
x[533] 0
x[534] 0
x[535] 9.9999998959293290e-01
x[536] 0
x[537] 1
x[538] 1
x[539] 0
x[540] 1
x[541] 1.4441176236327888e-08
x[542] 1
x[543] 0
x[544] 0
x[545] 1
x[546] -8.7840583773774863e-08
x[547] 0
x[548] 0
x[549] 0
x[550] 1
x[551] 0
x[552] 0
x[553] 1.0000000216931721e+00
x[554] 1
x[555] 0
x[556] 0
x[557] 0
x[558] 1
x[559] 1
x[560] 1
x[561] 1
x[562] 0
x[563] 1
x[564] 4.6424665292096310e-09
x[565] 1.4459994387308485e-08
x[566] 1
x[567] 1
x[568] 1
x[569] 0
x[570] 0
x[571] 1
x[572] 0
x[573] -1.6053667284410267e-08
x[574] 0
x[575] 1
x[576] 0
x[577] 1
x[578] 1.0000000026918316e+00
x[579] 1
x[580] 1
x[581] 1
x[582] 0
x[583] 1
x[584] 0
x[585] -2.3912522412761170e-08
x[586] 1
x[587] 1
x[588] 0
x[589] 0
x[590] 1
x[591] 0
x[592] 0
x[593] -1.6053667311581651e-08
x[594] 1
x[595] 0
x[596] 0
x[597] 0
x[598] 1
x[599] 0
x[600] 7.6816606709619254e-09
x[601] 0
x[602] 1
x[603] 1.0000000877855177e+00
x[604] 1
x[605] 1
x[606] 1
x[607] 1
x[608] 9.9999998548967406e-01
x[609] 1
x[610] 1
x[611] 1.44488762149905e-08
x[612] 0
x[613] 1.4335329035488066e-08
x[614] 1
x[615] 1
x[616] 0
x[617] 0
x[618] 1
x[619] 0
x[620] 1
x[621] 0
x[622] 0
x[623] 1
x[624] 1
x[625] 0
x[626] 0
x[627] 0
x[628] 1.0000001101222364e+00
x[629] 1
x[630] 0
x[631] 0
x[632] 1
x[633] 1
x[634] -8.7840584139797784e-08
x[635] 0
x[636] 1.0000006665108754e+00
x[637] 1
x[638] 1.0000000199194299e+00
x[639] 1.0000000159557287e+00
x[640] 1
x[641] 1
x[642] 0
x[643] 1.0000006665666341e+00
x[644] -1.1021541115900279e-07
x[645] 8.0122405026866708e-09
x[646] 1
x[647] 1
x[648] 1
x[649] 9.9999999193870781e-01
x[650] 0
x[651] -8.7840584139797784e-08
x[652] 0
x[653] 0
x[654] 0.99999998732944
x[655] 1
x[656] 0
x[657] 1
x[658] 0
x[659] 0
x[660] 1
x[661] 0
x[662] 0
x[663] 1
x[664] 1
x[665] 1
x[666] 0
x[667] 0
x[668] 1
x[669] 1
x[670] 0
x[671] 0
x[672] 1.0000001101562372e+00
x[673] 0
x[674] 1
x[675] 0
x[676] 1
x[677] 1
x[678] 1.0000001043436231e+00
x[679] 0
x[680] 1
x[681] 1
x[682] 0
x[683] 0
x[684] 0
x[685] 1
x[686] 9.9999999032644937e-01
x[687] 0
x[688] 1
x[689] 0
x[690] 1
x[691] 1
x[692] 0
x[693] 1
x[694] 1
x[695] -1.1021541113098721e-07
x[696] -6.6666755794284906e-07
x[697] 1
x[698] 0
x[699] 9.9999998548967339e-01
x[700] 0
x[701] 9.9999998760656217e-01
x[702] 1
x[703] 1
x[704] 0
x[705] 1
x[706] 0
x[707] 0
x[708] 0
x[709] 0
x[710] 1.0000000555447168e+00
x[711] 0
x[712] 0
x[713] -1.0235091085775139e-07
x[714] 1
x[715] 0
x[716] 0
x[717] 1
x[718] 0
x[719] 0
x[720] 0
x[721] 0
x[722] 0
x[723] 1
x[724] 0
x[725] 1
x[726] 0
x[727] 1
x[728] 0
x[729] 1.3332753539450642e-06
x[730] 1
x[731] 0
x[732] -7.3695771871595207e-09
x[733] 1.0000000057765839e+00
x[734] 1
x[735] 0
x[736] 0
x[737] 0
x[738] 1.0000000877777082e+00
x[739] 1
x[740] 0
x[741] 1
x[742] 1
x[743] 0
x[744] 0
x[745] 1.0000001101605487e+00
x[746] 1
x[747] 9.9999933333288715e-01
x[748] 1
x[749] 0
x[750] 0
x[751] 0
x[752] 1
x[753] 1.0000000072919633e+00
x[754] 0
x[755] 1
x[756] 0
x[757] 1
x[758] 1
x[759] 1
x[760] 1.0207976864828668e-07
x[761] 0
x[762] 1
x[763] 0
x[764] 0
x[765] 1
x[766] 0
x[767] 0
x[768] 0
x[769] 1
x[770] 1
x[771] 1.4444999409673716e-08
x[772] -2.7368039446528488e-09
x[773] 0
x[774] 0
x[775] 1.4402136347618757e-08
x[776] 0
x[777] 0
x[778] 0
x[779] -1.0688207790867617e-07
x[780] 0
x[781] -2.45022928613281e-08
x[782] 0
x[783] 9.9999988978458887e-01
x[784] 0
x[785] 0
x[786] 9.9999933333288715e-01
x[787] 0
x[788] -5.2243907722102047e-08
x[789] 0
x[790] 1
x[791] 0
x[792] 0
x[793] 0
x[794] 0
x[795] 1.0000000117593884e+00
x[796] 0
x[797] 0
x[798] 1
x[799] 1
x[800] 0
x[801] 1
x[802] 0
x[803] 0
x[804] -1.1021541101996490e-07
x[805] 1
x[806] -1.0525725768590153e-07
x[807] 0
x[808] 1
x[809] 1
x[810] 0
x[811] 0
x[812] 0
x[813] 0.999999990489673
x[814] -8.4444374809521066e-08
x[815] 0
x[816] 0
x[817] 0
x[818] 0
x[819] 1
x[820] 1
x[821] 1
x[822] 1.0000000115742456e+00
x[823] 0
x[824] 1
x[825] 0
x[826] 0
x[827] 1
x[828] 0
x[829] 0
x[830] 1
x[831] 0
x[832] 1
x[833] 0
x[834] 0
x[835] 0
x[836] 0
x[837] 0
x[838] 0
x[839] 1
x[840] 1
x[841] 0
x[842] 0
x[843] 0
x[844] 1
x[845] 1
x[846] 0
x[847] 1
x[848] 0
x[849] 0
x[850] 1.0000000877867810e+00
x[851] 0
x[852] 0
x[853] 0
x[854] 1
x[855] 0
x[856] 0
x[857] 1
x[858] 1
x[859] 0
x[860] 1
x[861] 1
x[862] 0
x[863] 1.0000000026824412e+00
x[864] 0
x[865] 1
x[866] 0
x[867] 1
x[868] 0
x[869] 1.0000000026525284e+00
x[870] 1
x[871] 1.4438068506403981e-08
x[872] 0
x[873] 1.4465925892749722e-08
x[874] 0
x[875] 0
x[876] 1
x[877] 0
x[878] 0
x[879] 1
x[880] 1
x[881] 1
x[882] 1
x[883] 1
x[884] 1.4464001475868043e-08
x[885] 1
x[886] 1
x[887] 0
x[888] 0
x[889] 0
x[890] 0
x[891] 1
x[892] 1
x[893] 1.0000006666054919e+00
x[894] 1
x[895] 0
x[896] 1
x[897] 1.0000000555749360e+00
x[898] 1
x[899] 0
x[900] 0
x[901] 1.1008546761009723e-07
x[902] 0
x[903] 0
x[904] 9.9999998548967417e-01
x[905] 1
x[906] 1
x[907] 1
x[908] 1
x[909] 1
x[910] 1
x[911] 9.9999999193870792e-01
x[912] 0
x[913] 0
x[914] 0
x[915] -8.7840584188718357e-08
x[916] 0
x[917] 1
x[918] 0
x[919] 1
x[920] 1
x[921] 0
x[922] 0
x[923] 9.9999933676544406e-01
x[924] 1
x[925] 0
x[926] 0
x[927] 1
x[928] 0
x[929] 1
x[930] 1.0000000158694504e+00
x[931] 0
x[932] 0
x[933] 0
x[934] 1.4465251539283894e-08
x[935] 1.0000000155969013e+00
x[936] 1.0000000238470710e+00
x[937] 0
x[938] 0
x[939] 9.9999999999999989e-01
x[940] 1
x[941] 1
x[942] 6.6662199748293177e-07
x[943] 1.0000001099757583e+00
x[944] 0.999999996886739
x[945] 1
x[946] 0
x[947] 9.9999989051106186e-01
x[948] 1.4450424294756502e-08
x[949] 0
x[950] 1
x[951] 0
x[952] 0
x[953] 0
x[954] 0
x[955] 9.9999998882300745e-01
x[956] 0
x[957] 1
x[958] 0
x[959] 1
x[960] 9.9999998548967350e-01
x[961] 1
x[962] 1
x[963] 1
x[964] 1
x[965] 1
x[966] 1
x[967] 0
x[968] 0
x[969] 0
x[970] 0
x[971] 0
x[972] 1.4431904953505145e-08
x[973] 1
x[974] 0
x[975] 1
x[976] 1
x[977] 0
x[978] 9.9999999516643123e-01
x[979] 0
x[980] 1.0000000216199099e+00
x[981] 0
x[982] 0
x[983] 1
x[984] 1
x[985] 0
x[986] 1
x[987] 1
x[988] 1
x[989] 1.0000001047974119e+00
x[990] 1
x[991] 0
x[992] 0
x[993] 1
x[994] 0
x[995] 1.0000001101456084e+00
x[996] 1
x[997] -1.6053667506454872e-08
x[998] 1
x[999] 1
